set STOCKS := ^OEX.1 ^OEX.2 ^OEX.3 AAPL.2 AAPL AAPL.3 AAPL.1 JPM.2 JPM JPM.1;

param r :=
    ^OEX.1 0.000377
    ^OEX.2 0.000317
    ^OEX.3 0.000403
    AAPL.2 0.001113
    AAPL 0.001104
    AAPL.3 0.001199
    AAPL.1 0.001223
    JPM.2 0.000900
    JPM 0.000910
    JPM.1 0.000990
;
